20
1 0 10
2 0 10
2 1 20
3 0 18
3 1 7
3 2 8
4 0 16
4 1 20
4 2 20
4 3 4
5 0 8
5 1 6
5 2 6
5 3 11
5 4 2
6 0 9
6 1 12
6 2 9
6 3 20
6 4 13
6 5 17
7 0 7
7 1 15
7 2 16
7 3 17
7 4 9
7 5 19
7 6 18
8 0 14
8 1 12
8 2 1
8 3 3
8 4 19
8 5 4
8 6 8
8 7 9
9 0 8
9 1 8
9 2 8
9 3 4
9 4 16
9 5 10
9 6 15
9 7 9
9 8 2
10 0 14
10 1 14
10 2 20
10 3 4
10 4 9
10 5 20
10 6 14
10 7 15
10 8 20
10 9 19
11 0 15
11 1 7
11 2 11
11 3 17
11 4 15
11 5 12
11 6 15
11 7 11
11 8 9
11 9 7
11 10 1
12 0 5
12 1 9
12 2 6
12 3 1
12 4 17
12 5 19
12 6 20
12 7 18
12 8 4
12 9 18
12 10 17
12 11 9
13 0 16
13 1 8
13 2 10
13 3 1
13 4 1
13 5 5
13 6 15
13 7 10
13 8 5
13 9 4
13 10 12
13 11 6
13 12 9
14 0 18
14 1 16
14 2 12
14 3 12
14 4 15
14 5 10
14 6 7
14 7 7
14 8 4
14 9 20
14 10 18
14 11 7
14 12 5
14 13 8
15 0 20
15 1 15
15 2 3
15 3 19
15 4 17
15 5 18
15 6 4
15 7 12
15 8 15
15 9 14
15 10 20
15 11 12
15 12 9
15 13 13
15 14 14
16 0 10
16 1 19
16 2 1
16 3 7
16 4 12
16 5 1
16 6 5
16 7 14
16 8 18
16 9 9
16 10 17
16 11 14
16 12 16
16 13 20
16 14 14
16 15 18
17 0 20
17 1 11
17 2 11
17 3 15
17 4 7
17 5 3
17 6 8
17 7 13
17 8 9
17 9 12
17 10 20
17 11 6
17 12 16
17 13 14
17 14 14
17 15 16
17 16 11
18 0 16
18 1 4
18 2 10
18 3 4
18 4 1
18 5 9
18 6 18
18 7 6
18 8 1
18 9 20
18 10 18
18 11 3
18 12 6
18 13 1
18 14 15
18 15 1
18 16 2
18 17 18
19 0 1
19 1 6
19 2 7
19 3 18
19 4 8
19 5 19
19 6 13
19 7 18
19 8 15
19 9 8
19 10 13
19 11 6
19 12 9
19 13 16
19 14 11
19 15 10
19 16 10
19 17 14
19 18 3
